Custom/35333_14.param
$ LBS instance with n = 14, seed = 35333
letting cards be [19,33,25,38,32,17,4,35,20,22,43,2,41,13]
